##### I/O #####
SYSTEM = Annealing
NCORE = 36  # depend on cpu node
ISTART = 1
ICHARG = 1
LWAVE = .FALSE.
LCHARG = .FALSE.

#### Elec Relax ####
ENCUT = 400
ISMEAR = 0
SIGMA = 0.05
EDIFF = 1E-5
NELMIN = 5
NELM = 300
GGA = PE
LREAL = Auto
ALGO = Fast
ISYM = 0
IVDW = 11

#### MD ####
NSW = 1000
POTIM = 1
SMASS = -1
# MDALGO = 2
TEBEG = 100
TEEND = 500
NBLOCK = 10